c CNF file corresponding to a (partial) station packing problem.
p cnf 6644 229
1 2 3 4 5 6 7 8 9 10 11 12 13 14 0
-1 -2 0
-1 -3 0
-1 -4 0
-1 -5 0
-1 -6 0
-1 -7 0
-1 -8 0
-1 -9 0
-1 -10 0
-1 -11 0
-1 -12 0
-1 -13 0
-1 -14 0
-2 -3 0
-2 -4 0
-2 -5 0
-2 -6 0
-2 -7 0
-2 -8 0
-2 -9 0
-2 -10 0
-2 -11 0
-2 -12 0
-2 -13 0
-2 -14 0
-3 -4 0
-3 -5 0
-3 -6 0
-3 -7 0
-3 -8 0
-3 -9 0
-3 -10 0
-3 -11 0
-3 -12 0
-3 -13 0
-3 -14 0
-4 -5 0
-4 -6 0
-4 -7 0
-4 -8 0
-4 -9 0
-4 -10 0
-4 -11 0
-4 -12 0
-4 -13 0
-4 -14 0
-5 -6 0
-5 -7 0
-5 -8 0
-5 -9 0
-5 -10 0
-5 -11 0
-5 -12 0
-5 -13 0
-5 -14 0
-6 -7 0
-6 -8 0
-6 -9 0
-6 -10 0
-6 -11 0
-6 -12 0
-6 -13 0
-6 -14 0
-7 -8 0
-7 -9 0
-7 -10 0
-7 -11 0
-7 -12 0
-7 -13 0
-7 -14 0
-8 -9 0
-8 -10 0
-8 -11 0
-8 -12 0
-8 -13 0
-8 -14 0
-9 -10 0
-9 -11 0
-9 -12 0
-9 -13 0
-9 -14 0
-10 -11 0
-10 -12 0
-10 -13 0
-10 -14 0
-11 -12 0
-11 -13 0
-11 -14 0
-12 -13 0
-12 -14 0
-13 -14 0
6628 6629 6630 6631 6632 6633 6634 6635 6636 6637 6638 6639 6640 6641 6642 6643 6644 0
-6628 -6629 0
-6628 -6630 0
-6628 -6631 0
-6628 -6632 0
-6628 -6633 0
-6628 -6634 0
-6628 -6635 0
-6628 -6636 0
-6628 -6637 0
-6628 -6638 0
-6628 -6639 0
-6628 -6640 0
-6628 -6641 0
-6628 -6642 0
-6628 -6643 0
-6628 -6644 0
-6629 -6630 0
-6629 -6631 0
-6629 -6632 0
-6629 -6633 0
-6629 -6634 0
-6629 -6635 0
-6629 -6636 0
-6629 -6637 0
-6629 -6638 0
-6629 -6639 0
-6629 -6640 0
-6629 -6641 0
-6629 -6642 0
-6629 -6643 0
-6629 -6644 0
-6630 -6631 0
-6630 -6632 0
-6630 -6633 0
-6630 -6634 0
-6630 -6635 0
-6630 -6636 0
-6630 -6637 0
-6630 -6638 0
-6630 -6639 0
-6630 -6640 0
-6630 -6641 0
-6630 -6642 0
-6630 -6643 0
-6630 -6644 0
-6631 -6632 0
-6631 -6633 0
-6631 -6634 0
-6631 -6635 0
-6631 -6636 0
-6631 -6637 0
-6631 -6638 0
-6631 -6639 0
-6631 -6640 0
-6631 -6641 0
-6631 -6642 0
-6631 -6643 0
-6631 -6644 0
-6632 -6633 0
-6632 -6634 0
-6632 -6635 0
-6632 -6636 0
-6632 -6637 0
-6632 -6638 0
-6632 -6639 0
-6632 -6640 0
-6632 -6641 0
-6632 -6642 0
-6632 -6643 0
-6632 -6644 0
-6633 -6634 0
-6633 -6635 0
-6633 -6636 0
-6633 -6637 0
-6633 -6638 0
-6633 -6639 0
-6633 -6640 0
-6633 -6641 0
-6633 -6642 0
-6633 -6643 0
-6633 -6644 0
-6634 -6635 0
-6634 -6636 0
-6634 -6637 0
-6634 -6638 0
-6634 -6639 0
-6634 -6640 0
-6634 -6641 0
-6634 -6642 0
-6634 -6643 0
-6634 -6644 0
-6635 -6636 0
-6635 -6637 0
-6635 -6638 0
-6635 -6639 0
-6635 -6640 0
-6635 -6641 0
-6635 -6642 0
-6635 -6643 0
-6635 -6644 0
-6636 -6637 0
-6636 -6638 0
-6636 -6639 0
-6636 -6640 0
-6636 -6641 0
-6636 -6642 0
-6636 -6643 0
-6636 -6644 0
-6637 -6638 0
-6637 -6639 0
-6637 -6640 0
-6637 -6641 0
-6637 -6642 0
-6637 -6643 0
-6637 -6644 0
-6638 -6639 0
-6638 -6640 0
-6638 -6641 0
-6638 -6642 0
-6638 -6643 0
-6638 -6644 0
-6639 -6640 0
-6639 -6641 0
-6639 -6642 0
-6639 -6643 0
-6639 -6644 0
-6640 -6641 0
-6640 -6642 0
-6640 -6643 0
-6640 -6644 0
-6641 -6642 0
-6641 -6643 0
-6641 -6644 0
-6642 -6643 0
-6642 -6644 0
-6643 -6644 0
